************************************************************************
file with basedata            : mm15_.bas
initial value random generator: 1311655734
************************************************************************
projects                      :  1
jobs (incl. supersource/sink ):  12
horizon                       :  80
RESOURCES
  - renewable                 :  2   R
  - nonrenewable              :  2   N
  - doubly constrained        :  0   D
************************************************************************
PROJECT INFORMATION:
pronr.  #jobs rel.date duedate tardcost  MPM-Time
    1     10      0       11        4       11
************************************************************************
PRECEDENCE RELATIONS:
jobnr.    #modes  #successors   successors
   0        1          3           1   2   3
   1        3          2           8  10
   2        3          1           4
   3        3          3           5   6   8
   4        3          2           9  10
   5        3          1           7
   6        3          1           7
   7        3          2           9  10
   8        3          1          11
   9        3          1          11
  10        3          1          11
  11        1          0        
************************************************************************
REQUESTS/DURATIONS:
jobnr. mode duration  R 1  R 2  R 3  R 4  E(W 1)
------------------------------------------------------------------------
  0      1     0       0    0    0    0     0
  1      1     5       8    0    5    8    105
  2      1     1       0    1    4    4    10
  3      1     1       0    4    4    4    12
  4      1     2       0    3    3    2    16
  5      1     5       4    0    6    3    65
  6      1     5       5    0   10    5    100
  7      1     1       0    6    2    2    10
  8      1     2       0    7    6    9    44
  9      1     4       0    3    8    5    64
 10      1     2       0    7    7    9    46
 11      1     0       0    0    0    0     0
************************************************************************
RESOURCEAVAILABILITIES:
  R 1
   123
************************************************************************
RESOURCE LIMITS:
jobnr.  l(R 1)  u(R 1)
------------------------------------------------------------------------
  0        0       0
  1       11      21
  2        5      10
  3        6      12
  4        5       8
  5        7      13
  6       11      20
  7        5      10
  8       12      22
  9        9      16
 10       13      23
 11        0       0
************************************************************************
SCENARIOS:
------------------------------------------------------------------------
RESOURCE k = 1
s = 1: (0, 118, 9, 9, 20, 74, 75, 11, 37, 60, 67, 0)
s = 2: (0, 84, 13, 10, 13, 59, 149, 8, 66, 86, 46, 0)
s = 3: (0, 74, 7, 15, 12, 100, 98, 7, 74, 61, 47, 0)
s = 4: (0, 72, 10, 8, 13, 68, 78, 8, 41, 55, 32, 0)
s = 5: (0, 113, 13, 7, 13, 85, 83, 8, 43, 45, 34, 0)
s = 6: (0, 102, 7, 13, 14, 86, 77, 11, 29, 50, 54, 0)
s = 7: (0, 84, 7, 15, 13, 83, 82, 9, 31, 68, 45, 0)
s = 8: (0, 67, 6, 11, 11, 40, 65, 10, 24, 94, 63, 0)
s = 9: (0, 125, 7, 22, 20, 50, 74, 7, 60, 50, 49, 0)
s = 10: (0, 79, 11, 23, 24, 47, 118, 9, 40, 64, 63, 0)
s = 11: (0, 92, 9, 16, 19, 75, 66, 10, 65, 48, 44, 0)
s = 12: (0, 91, 13, 15, 16, 51, 130, 10, 57, 74, 28, 0)
s = 13: (0, 142, 14, 13, 17, 76, 89, 13, 45, 40, 37, 0)
s = 14: (0, 61, 10, 15, 19, 52, 109, 16, 48, 59, 54, 0)
s = 15: (0, 99, 17, 10, 16, 47, 129, 10, 40, 98, 44, 0)
s = 16: (0, 62, 13, 14, 11, 74, 112, 12, 45, 64, 53, 0)
s = 17: (0, 88, 15, 13, 13, 42, 125, 12, 49, 74, 71, 0)
s = 18: (0, 80, 10, 18, 23, 65, 82, 9, 66, 82, 48, 0)
s = 19: (0, 113, 13, 14, 12, 44, 62, 13, 54, 86, 50, 0)
s = 20: (0, 186, 12, 13, 15, 74, 80, 12, 55, 74, 34, 0)
s = 21: (0, 131, 8, 10, 22, 62, 88, 16, 56, 76, 38, 0)
s = 22: (0, 115, 9, 9, 17, 70, 61, 8, 44, 35, 47, 0)
s = 23: (0, 93, 7, 12, 18, 67, 140, 7, 52, 80, 43, 0)
s = 24: (0, 142, 11, 14, 12, 87, 89, 6, 55, 85, 67, 0)
s = 25: (0, 132, 13, 12, 14, 61, 132, 7, 38, 50, 48, 0)
s = 26: (0, 152, 9, 14, 23, 79, 67, 11, 35, 52, 44, 0)
s = 27: (0, 110, 10, 14, 18, 65, 70, 12, 51, 76, 48, 0)
s = 28: (0, 115, 12, 11, 15, 66, 120, 9, 60, 100, 31, 0)
s = 29: (0, 96, 10, 15, 11, 49, 104, 8, 35, 37, 65, 0)
s = 30: (0, 88, 12, 7, 15, 99, 125, 8, 50, 49, 55, 0)
s = 31: (0, 85, 7, 20, 22, 67, 70, 7, 29, 86, 35, 0)
s = 32: (0, 112, 13, 17, 15, 64, 134, 14, 35, 95, 38, 0)
s = 33: (0, 96, 7, 8, 14, 42, 114, 12, 38, 49, 74, 0)
s = 34: (0, 78, 9, 14, 12, 85, 61, 8, 43, 43, 48, 0)
s = 35: (0, 55, 9, 9, 14, 53, 117, 11, 27, 50, 52, 0)
s = 36: (0, 92, 9, 9, 17, 47, 78, 14, 28, 44, 62, 0)
s = 37: (0, 77, 8, 13, 16, 54, 94, 9, 30, 52, 42, 0)
s = 38: (0, 86, 8, 14, 15, 81, 110, 10, 43, 64, 25, 0)
s = 39: (0, 95, 11, 12, 12, 80, 110, 8, 38, 75, 36, 0)
s = 40: (0, 78, 11, 16, 15, 56, 65, 10, 41, 59, 36, 0)
s = 41: (0, 119, 12, 13, 16, 86, 104, 12, 32, 35, 50, 0)
s = 42: (0, 103, 11, 16, 17, 85, 95, 10, 31, 45, 30, 0)
s = 43: (0, 86, 7, 17, 14, 36, 96, 9, 36, 73, 42, 0)
s = 44: (0, 133, 8, 12, 12, 77, 81, 8, 38, 67, 30, 0)
s = 45: (0, 62, 13, 13, 19, 79, 99, 10, 45, 72, 54, 0)
s = 46: (0, 149, 7, 11, 19, 70, 81, 7, 39, 51, 63, 0)
s = 47: (0, 107, 9, 12, 17, 80, 87, 16, 38, 33, 40, 0)
s = 48: (0, 83, 7, 17, 18, 37, 112, 6, 25, 54, 42, 0)
s = 49: (0, 69, 12, 10, 16, 50, 88, 7, 65, 60, 46, 0)
s = 50: (0, 97, 7, 10, 22, 53, 124, 11, 46, 55, 31, 0)
s = 51: (0, 83, 10, 9, 14, 43, 140, 7, 50, 66, 47, 0)
s = 52: (0, 103, 7, 13, 15, 97, 82, 7, 36, 59, 74, 0)
s = 53: (0, 124, 10, 12, 18, 72, 74, 7, 34, 58, 33, 0)
s = 54: (0, 129, 16, 12, 16, 48, 91, 8, 48, 54, 48, 0)
s = 55: (0, 142, 13, 23, 16, 39, 95, 9, 52, 49, 50, 0)
s = 56: (0, 81, 14, 10, 21, 60, 87, 10, 61, 59, 46, 0)
s = 57: (0, 61, 14, 17, 29, 47, 76, 12, 55, 51, 66, 0)
s = 58: (0, 99, 11, 21, 17, 78, 86, 10, 62, 84, 58, 0)
s = 59: (0, 106, 10, 12, 14, 96, 73, 7, 26, 37, 73, 0)
s = 60: (0, 74, 11, 15, 11, 68, 69, 11, 43, 75, 39, 0)
s = 61: (0, 88, 9, 16, 17, 40, 100, 15, 49, 65, 32, 0)
s = 62: (0, 127, 6, 12, 17, 65, 132, 14, 47, 70, 52, 0)
s = 63: (0, 127, 13, 8, 21, 73, 146, 12, 32, 56, 42, 0)
s = 64: (0, 115, 13, 9, 28, 62, 126, 14, 33, 84, 31, 0)
s = 65: (0, 94, 10, 13, 14, 83, 112, 11, 47, 70, 34, 0)
s = 66: (0, 96, 12, 13, 23, 62, 167, 8, 54, 74, 58, 0)
s = 67: (0, 129, 11, 11, 25, 53, 149, 7, 29, 74, 43, 0)
s = 68: (0, 136, 9, 9, 26, 46, 141, 8, 48, 113, 42, 0)
s = 69: (0, 92, 12, 12, 21, 75, 64, 8, 56, 50, 47, 0)
s = 70: (0, 105, 15, 8, 18, 70, 140, 13, 50, 61, 33, 0)
s = 71: (0, 85, 12, 17, 10, 70, 72, 9, 59, 79, 45, 0)
s = 72: (0, 106, 9, 10, 14, 44, 68, 10, 55, 72, 65, 0)
s = 73: (0, 88, 11, 8, 18, 85, 139, 8, 29, 53, 51, 0)
s = 74: (0, 156, 6, 8, 17, 70, 86, 9, 52, 55, 49, 0)
s = 75: (0, 68, 12, 15, 16, 54, 95, 12, 39, 68, 63, 0)
s = 76: (0, 81, 15, 10, 12, 79, 80, 7, 66, 58, 32, 0)
s = 77: (0, 177, 12, 9, 23, 54, 112, 8, 43, 49, 64, 0)
s = 78: (0, 103, 9, 15, 19, 40, 80, 7, 31, 45, 33, 0)
s = 79: (0, 61, 8, 11, 14, 75, 133, 8, 51, 49, 69, 0)
s = 80: (0, 116, 10, 10, 20, 60, 64, 16, 23, 84, 52, 0)
s = 81: (0, 119, 8, 10, 13, 60, 118, 13, 42, 64, 44, 0)
s = 82: (0, 95, 9, 9, 16, 78, 128, 13, 73, 73, 73, 0)
s = 83: (0, 162, 11, 13, 11, 73, 149, 9, 38, 84, 30, 0)
s = 84: (0, 92, 11, 22, 14, 49, 99, 12, 39, 63, 35, 0)
s = 85: (0, 102, 15, 16, 21, 55, 65, 9, 48, 81, 43, 0)
s = 86: (0, 107, 11, 11, 15, 45, 142, 8, 30, 60, 38, 0)
s = 87: (0, 66, 9, 11, 15, 73, 91, 9, 56, 36, 29, 0)
s = 88: (0, 147, 7, 19, 17, 46, 135, 10, 31, 47, 51, 0)
s = 89: (0, 132, 10, 13, 27, 57, 91, 13, 51, 55, 56, 0)
s = 90: (0, 76, 9, 14, 26, 89, 151, 15, 40, 80, 66, 0)
s = 91: (0, 125, 11, 15, 13, 58, 138, 7, 40, 88, 56, 0)
s = 92: (0, 108, 9, 16, 14, 44, 160, 9, 62, 58, 33, 0)
s = 93: (0, 65, 10, 11, 16, 58, 65, 10, 54, 38, 48, 0)
s = 94: (0, 137, 13, 15, 19, 45, 105, 9, 50, 56, 42, 0)
s = 95: (0, 123, 8, 12, 13, 75, 63, 10, 79, 52, 34, 0)
s = 96: (0, 111, 8, 8, 12, 60, 64, 12, 57, 40, 39, 0)
s = 97: (0, 114, 9, 16, 20, 59, 86, 12, 76, 112, 33, 0)
s = 98: (0, 68, 9, 11, 15, 101, 90, 8, 63, 79, 50, 0)
s = 99: (0, 78, 13, 11, 24, 53, 91, 12, 41, 78, 52, 0)
s = 100: (0, 105, 14, 17, 24, 61, 116, 11, 57, 50, 60, 0)
s = 101: (0, 120, 7, 7, 21, 68, 117, 8, 32, 57, 42, 0)
s = 102: (0, 142, 7, 25, 22, 75, 64, 12, 53, 74, 55, 0)
s = 103: (0, 64, 9, 14, 13, 110, 74, 16, 54, 71, 38, 0)
s = 104: (0, 90, 11, 10, 11, 43, 99, 15, 47, 44, 41, 0)
s = 105: (0, 86, 7, 11, 15, 46, 79, 11, 54, 51, 39, 0)
s = 106: (0, 105, 18, 11, 19, 78, 117, 14, 29, 62, 50, 0)
s = 107: (0, 145, 11, 15, 17, 57, 82, 10, 25, 46, 28, 0)
s = 108: (0, 139, 13, 13, 23, 74, 99, 7, 47, 45, 50, 0)
s = 109: (0, 104, 12, 15, 19, 64, 95, 8, 34, 101, 67, 0)
s = 110: (0, 75, 13, 14, 13, 65, 82, 9, 48, 58, 52, 0)
s = 111: (0, 160, 9, 10, 15, 75, 58, 6, 41, 36, 82, 0)
s = 112: (0, 68, 7, 11, 25, 48, 99, 12, 41, 64, 48, 0)
s = 113: (0, 62, 15, 11, 21, 66, 77, 16, 61, 52, 74, 0)
s = 114: (0, 132, 8, 16, 10, 68, 69, 11, 44, 49, 34, 0)
s = 115: (0, 119, 13, 8, 19, 46, 118, 14, 44, 48, 32, 0)
s = 116: (0, 69, 11, 9, 17, 53, 152, 7, 33, 95, 48, 0)
s = 117: (0, 112, 7, 13, 18, 46, 97, 17, 71, 47, 36, 0)
s = 118: (0, 74, 9, 8, 28, 75, 113, 11, 45, 73, 52, 0)
s = 119: (0, 134, 12, 10, 15, 79, 81, 12, 58, 75, 57, 0)
s = 120: (0, 89, 9, 11, 20, 64, 113, 10, 36, 60, 46, 0)
s = 121: (0, 128, 15, 11, 14, 57, 110, 7, 39, 38, 58, 0)
s = 122: (0, 114, 15, 12, 10, 99, 138, 11, 47, 41, 36, 0)
s = 123: (0, 118, 11, 13, 15, 78, 80, 11, 33, 51, 40, 0)
s = 124: (0, 123, 11, 13, 23, 67, 97, 7, 48, 74, 33, 0)
s = 125: (0, 101, 10, 11, 14, 67, 114, 9, 36, 41, 49, 0)
s = 126: (0, 150, 11, 8, 26, 73, 73, 7, 41, 70, 52, 0)
s = 127: (0, 119, 8, 15, 14, 66, 122, 11, 41, 51, 88, 0)
s = 128: (0, 105, 12, 9, 13, 38, 93, 7, 75, 97, 75, 0)
s = 129: (0, 76, 8, 16, 22, 42, 119, 16, 60, 81, 33, 0)
s = 130: (0, 62, 14, 8, 20, 67, 109, 15, 57, 50, 31, 0)
s = 131: (0, 125, 17, 9, 12, 60, 54, 11, 45, 83, 55, 0)
s = 132: (0, 62, 12, 12, 16, 49, 113, 12, 24, 61, 50, 0)
s = 133: (0, 76, 7, 14, 14, 77, 104, 14, 31, 52, 40, 0)
s = 134: (0, 88, 10, 8, 21, 64, 120, 17, 48, 80, 49, 0)
s = 135: (0, 121, 12, 17, 11, 37, 144, 9, 39, 69, 67, 0)
s = 136: (0, 80, 8, 11, 11, 105, 129, 6, 55, 66, 26, 0)
s = 137: (0, 96, 19, 16, 16, 73, 79, 8, 36, 54, 52, 0)
s = 138: (0, 120, 9, 21, 15, 56, 86, 11, 87, 64, 62, 0)
s = 139: (0, 148, 9, 13, 17, 92, 131, 15, 50, 73, 56, 0)
s = 140: (0, 176, 13, 13, 16, 114, 103, 9, 46, 57, 35, 0)
s = 141: (0, 115, 7, 12, 21, 49, 72, 13, 47, 48, 61, 0)
s = 142: (0, 132, 9, 11, 15, 74, 134, 10, 36, 78, 37, 0)
s = 143: (0, 124, 16, 11, 13, 120, 113, 10, 62, 51, 58, 0)
s = 144: (0, 135, 9, 16, 13, 80, 85, 14, 54, 106, 45, 0)
s = 145: (0, 87, 9, 8, 21, 40, 80, 7, 35, 46, 33, 0)
s = 146: (0, 99, 9, 13, 14, 62, 81, 11, 30, 71, 32, 0)
s = 147: (0, 75, 10, 9, 17, 75, 90, 8, 51, 81, 45, 0)
s = 148: (0, 173, 8, 9, 27, 52, 122, 6, 36, 70, 43, 0)
s = 149: (0, 87, 9, 17, 17, 94, 101, 8, 49, 42, 59, 0)
s = 150: (0, 137, 11, 7, 21, 50, 122, 8, 54, 40, 49, 0)
s = 151: (0, 136, 7, 11, 19, 65, 119, 8, 68, 45, 38, 0)
s = 152: (0, 145, 10, 11, 14, 43, 99, 10, 43, 58, 54, 0)
s = 153: (0, 89, 9, 15, 17, 42, 111, 8, 52, 54, 45, 0)
s = 154: (0, 95, 8, 10, 11, 84, 87, 7, 39, 65, 26, 0)
s = 155: (0, 120, 6, 8, 17, 39, 108, 9, 56, 62, 84, 0)
s = 156: (0, 119, 10, 15, 13, 51, 78, 13, 43, 80, 39, 0)
s = 157: (0, 136, 12, 9, 14, 53, 132, 7, 48, 43, 47, 0)
s = 158: (0, 164, 14, 10, 10, 78, 64, 14, 26, 65, 56, 0)
s = 159: (0, 76, 14, 8, 16, 44, 99, 18, 31, 33, 42, 0)
s = 160: (0, 137, 12, 11, 16, 90, 115, 13, 38, 79, 44, 0)
s = 161: (0, 179, 8, 16, 17, 56, 106, 11, 52, 86, 48, 0)
s = 162: (0, 103, 8, 9, 18, 60, 90, 8, 31, 75, 47, 0)
s = 163: (0, 109, 8, 11, 22, 81, 91, 7, 29, 85, 43, 0)
s = 164: (0, 135, 8, 14, 15, 71, 70, 7, 50, 77, 46, 0)
s = 165: (0, 86, 12, 7, 13, 57, 116, 14, 47, 67, 32, 0)
s = 166: (0, 110, 10, 12, 11, 54, 74, 10, 46, 33, 65, 0)
s = 167: (0, 77, 7, 10, 24, 40, 136, 12, 57, 48, 40, 0)
s = 168: (0, 103, 9, 11, 12, 64, 110, 9, 71, 48, 54, 0)
s = 169: (0, 111, 6, 14, 19, 72, 106, 7, 35, 44, 47, 0)
s = 170: (0, 103, 7, 12, 20, 65, 118, 8, 41, 39, 50, 0)
s = 171: (0, 142, 8, 9, 13, 103, 114, 10, 48, 35, 59, 0)
s = 172: (0, 151, 14, 7, 13, 45, 98, 9, 47, 70, 29, 0)
s = 173: (0, 121, 10, 9, 16, 60, 79, 16, 32, 65, 61, 0)
s = 174: (0, 68, 8, 11, 18, 51, 97, 8, 43, 73, 34, 0)
s = 175: (0, 69, 9, 10, 24, 90, 127, 7, 48, 66, 36, 0)
s = 176: (0, 150, 9, 14, 15, 51, 90, 16, 55, 56, 45, 0)
s = 177: (0, 124, 7, 13, 14, 39, 91, 9, 31, 58, 68, 0)
s = 178: (0, 185, 10, 11, 13, 63, 134, 7, 70, 71, 71, 0)
s = 179: (0, 147, 12, 14, 14, 49, 122, 9, 51, 84, 41, 0)
s = 180: (0, 146, 7, 16, 9, 57, 92, 7, 43, 73, 39, 0)
s = 181: (0, 100, 9, 10, 14, 68, 122, 11, 88, 55, 66, 0)
s = 182: (0, 161, 10, 21, 29, 67, 84, 10, 24, 81, 54, 0)
s = 183: (0, 122, 9, 8, 15, 57, 67, 11, 67, 47, 58, 0)
s = 184: (0, 75, 13, 19, 12, 90, 102, 9, 59, 60, 61, 0)
s = 185: (0, 122, 6, 12, 21, 77, 115, 12, 39, 59, 28, 0)
s = 186: (0, 110, 14, 12, 9, 41, 96, 12, 48, 57, 31, 0)
s = 187: (0, 72, 8, 16, 13, 98, 156, 12, 62, 80, 27, 0)
s = 188: (0, 99, 11, 9, 19, 59, 111, 9, 56, 69, 55, 0)
s = 189: (0, 141, 10, 19, 12, 59, 104, 14, 40, 38, 40, 0)
s = 190: (0, 120, 10, 10, 25, 45, 81, 9, 32, 83, 41, 0)
s = 191: (0, 71, 13, 15, 19, 68, 126, 11, 54, 89, 42, 0)
s = 192: (0, 106, 9, 12, 15, 43, 94, 11, 34, 86, 36, 0)
s = 193: (0, 100, 12, 15, 15, 43, 93, 20, 57, 46, 40, 0)
s = 194: (0, 123, 10, 8, 24, 42, 71, 16, 73, 52, 65, 0)
s = 195: (0, 73, 11, 7, 13, 63, 76, 13, 41, 42, 52, 0)
s = 196: (0, 75, 9, 13, 22, 42, 86, 10, 37, 73, 30, 0)
s = 197: (0, 90, 13, 11, 12, 84, 159, 13, 65, 52, 29, 0)
s = 198: (0, 90, 8, 13, 21, 68, 100, 8, 29, 68, 43, 0)
s = 199: (0, 139, 16, 11, 14, 45, 80, 13, 75, 100, 54, 0)
s = 200: (0, 108, 14, 13, 12, 77, 99, 11, 44, 42, 32, 0)
************************************************************************
ES/LS-VALUES:
jobnr.   ES(i)    LS(i)
------------------------------------------------------------------------
  0        0        0
  1        0       67
  2        0       66
  3        0       57
  4        1       68
  5        2       60
  6        2       61
  7       11       70
  8        8       76
  9       13       72
 10       13       76
 11       20       80
************************************************************************
BIG-M-VALUES:
M1 = 18, M2 = 186
************************************************************************
